p tw 24 36
1 6
1 8
1 21
2 7
2 13
2 19
3 5
3 10
3 15
4 11
4 20
4 23
5 10
5 18
6 12
6 22
7 20
7 21
8 9
8 24
9 14
9 15
10 19
11 14
11 22
12 20
12 23
13 15
13 24
14 16
16 17
16 18
17 22
17 23
18 21
19 24
